<number of tasks>
100

<cycle time>
1000

<order strength>
0.196


<task times>
1 82
2 55
3 225
4 90
5 150
6 27
7 95
8 110
9 125
10 110
11 88
12 348
13 168
14 245
15 235
16 85
17 59
18 202
19 135
20 307
21 113
22 193
23 228
24 196
25 119
26 140
27 121
28 132
29 28
30 168
31 49
32 198
33 88
34 108
35 239
36 116
37 188
38 206
39 149
40 165
41 99
42 174
43 167
44 24
45 44
46 202
47 34
48 130
49 232
50 266
51 24
52 69
53 297
54 71
55 72
56 122
57 92
58 82
59 131
60 223
61 262
62 91
63 44
64 43
65 60
66 120
67 43
68 345
69 273
70 85
71 163
72 80
73 47
74 93
75 86
76 127
77 204
78 223
79 124
80 207
81 172
82 228
83 48
84 22
85 246
86 181
87 191
88 117
89 182
90 46
91 111
92 106
93 167
94 219
95 43
96 34
97 79
98 62
99 94
100 53

<precedence relations>
1,29
2,29
3,52
4,11
5,7
5,9
5,10
5,12
5,13
5,14
5,16
5,17
6,8
6,15
6,18
7,29
8,52
9,52
10,52
11,19
12,24
13,23
14,22
14,25
14,27
15,26
16,21
16,28
18,20
19,29
20,29
21,29
22,52
23,30
24,33
25,31
26,32
26,35
26,38
27,37
28,34
28,36
29,39
29,40
29,41
29,42
29,43
29,44
30,45
31,45
32,47
34,46
34,50
35,48
35,51
37,49
45,52
46,53
47,54
48,55
52,56
52,57
52,58
52,59
52,60
52,61
52,62
53,63
54,63
55,64
55,65
56,66
56,70
57,68
57,72
60,71
61,69
62,67
66,75
67,73
67,74
67,79
70,76
71,78
72,77
73,80
74,81
75,83
76,85
79,82
79,84
80,86
81,88
82,87
82,91
83,92
85,89
85,90
86,94
87,93
89,100
90,95
91,97
91,98
92,96
92,99

<end>
